<number of tasks>
58

<cycle time>
54

<task times>
1 10
2 53
3 41
4 36
5 35
6 17
7 34
8 23
9 14
10 52
11 33
12 34
13 12
14 52
15 12
16 33
17 44
18 7
19 15
20 13
21 29
22 37
23 43
24 23
25 24
26 9
27 16
28 12
29 26
30 22
31 51
32 47
33 34
34 23
35 12
36 52
37 12
38 33
39 44
40 7
41 15
42 13
43 29
44 37
45 43
46 23
47 24
48 9
49 16
50 12
51 26
52 12
53 52
54 12
55 33
56 44
57 7
58 15

<precedence relations>
1,9
2,25
3,21
3,22
4,10
5,36
6,23
6,24
7,43
8,44
9,11
11,13
11,14
11,15
12,17
13,17
14,17
15,17
16,18
17,20
18,19
19,23
20,21
20,25
21,26
21,44
22,27
23,31
24,31
25,38
26,29
27,30
28,32
28,33
29,31
30,34
31,36
32,45
33,35
34,36
35,43
36,37
36,38
37,39
37,40
37,41
38,52
39,43
40,43
41,42
42,43
43,45
44,45
45,46
45,48
45,49
46,47
46,50
47,51
48,55
49,58
50,58
51,52
52,53
53,54
54,55
54,56
55,57
56,57
57,58

<setup times forward>
1,2:4
1,3:2
1,4:4
1,5:3
1,6:3
1,7:1
1,8:8
1,9:4
1,10:3
1,12:3
1,16:1
1,18:1
1,19:1
1,22:7
1,24:7
1,27:7
1,28:1
1,30:7
1,32:1
1,33:3
1,34:4
1,35:2
2,1:4
2,3:2
2,4:8
2,5:1
2,6:7
2,7:3
2,8:12
2,9:8
2,10:7
2,11:9
2,12:7
2,13:2
2,14:6
2,15:9
2,16:5
2,17:3
2,18:5
2,19:3
2,20:1
2,21:12
2,22:11
2,23:4
2,24:11
2,25:7
2,26:11
2,27:11
2,28:5
2,30:11
2,31:6
2,32:5
2,33:1
2,35:2
2,36:4
2,37:1
2,39:9
2,40:9
2,41:1
2,42:2
2,43:2
2,44:1
2,45:6
2,46:7
2,47:10
2,48:11
2,49:1
2,50:1
2,51:10
3,1:2
3,2:2
3,4:6
3,5:1
3,6:5
3,7:1
3,8:10
3,9:6
3,10:5
3,11:7
3,12:5
3,14:4
3,15:7
3,16:3
3,17:1
3,18:3
3,19:1
3,20:1
3,21:10
3,22:9
3,23:2
3,24:9
3,25:5
3,28:3
3,32:3
3,33:1
4,1:4
4,2:8
4,3:6
4,5:7
4,6:1
4,7:5
4,8:4
4,10:1
4,11:1
4,12:1
4,13:6
4,14:2
4,15:1
4,16:3
4,17:5
4,18:3
4,19:5
4,20:7
4,21:4
4,22:3
4,23:4
4,24:3
4,25:1
4,26:3
4,27:3
4,28:3
4,29:8
4,30:3
4,31:2
4,32:3
4,33:7
4,34:8
4,35:6
4,36:4
4,37:7
4,38:4
4,39:1
4,40:1
4,41:7
4,42:6
4,43:6
4,44:7
4,45:2
4,46:1
4,47:2
4,48:3
4,49:7
4,50:7
4,51:2
4,52:4
4,53:4
4,54:3
4,55:3
4,56:3
4,57:7
4,58:7
5,1:3
5,2:1
5,3:1
5,4:7
5,6:6
5,7:2
5,8:11
5,9:7
5,10:6
5,11:8
5,12:6
5,13:1
5,14:5
5,15:8
5,16:4
5,17:2
5,18:4
5,19:2
5,21:11
5,22:10
5,23:3
5,24:10
5,25:6
5,26:10
5,27:10
5,28:4
5,29:1
5,30:10
5,31:5
5,32:4
5,34:1
5,35:1
5,36:3
6,1:3
6,2:7
6,3:5
6,4:1
6,5:6
6,7:4
6,8:5
6,9:1
6,11:2
6,13:5
6,14:1
6,15:2
6,16:2
6,17:4
6,18:2
6,19:4
6,20:6
6,21:5
6,22:4
6,23:3
6,24:4
6,26:4
6,27:4
6,28:2
6,29:7
6,30:4
6,32:2
6,33:6
6,34:7
6,35:5
6,44:6
7,1:1
7,2:3
7,3:1
7,4:5
7,5:2
7,6:4
7,8:9
7,9:5
7,10:4
7,11:6
7,12:4
7,13:1
7,14:3
7,15:6
7,16:2
7,18:2
7,20:2
7,21:9
7,22:8
7,23:1
7,24:8
7,25:4
7,26:8
7,27:8
7,28:2
7,29:3
7,30:8
7,31:3
7,32:2
7,33:2
7,34:3
7,35:1
7,36:1
7,37:2
7,38:9
7,39:6
7,40:6
7,41:2
7,42:1
7,43:1
7,44:2
8,1:8
8,2:12
8,3:10
8,4:4
8,5:11
8,6:5
8,7:9
8,9:4
8,10:5
8,11:3
8,12:5
8,13:10
8,14:6
8,15:3
8,16:7
8,17:9
8,18:7
8,19:9
8,20:11
8,22:1
8,23:8
8,24:1
8,25:5
8,26:1
8,27:1
8,28:7
8,29:12
8,30:1
8,31:6
8,32:7
8,33:11
8,34:12
8,35:10
8,36:8
8,37:11
8,39:3
8,40:3
8,41:11
8,42:10
8,43:10
8,44:11
9,2:8
9,3:6
9,5:7
9,6:1
9,7:5
9,8:4
9,10:1
9,11:1
9,12:1
9,16:3
9,18:3
9,19:5
9,22:3
9,23:4
9,24:3
9,27:3
9,28:3
9,30:3
9,32:3
9,33:7
9,34:8
9,35:6
10,1:3
10,2:7
10,3:5
10,5:6
10,7:4
10,8:5
10,9:1
10,11:2
10,13:5
10,14:1
10,15:2
10,16:2
10,17:4
10,18:2
10,19:4
10,20:6
10,21:5
10,22:4
10,23:3
10,24:4
10,26:4
10,27:4
10,28:2
10,29:7
10,30:4
10,31:1
10,32:2
10,33:6
10,34:7
10,35:5
10,36:3
10,37:6
10,38:5
10,39:2
10,40:2
10,41:6
10,42:5
10,43:5
10,44:6
10,45:1
10,47:3
10,48:4
10,49:6
10,50:6
10,51:3
10,52:5
10,53:3
10,54:4
10,55:4
10,56:2
10,57:6
10,58:6
11,2:9
11,3:7
11,4:1
11,5:8
11,6:2
11,7:6
11,8:3
11,10:2
11,12:2
11,13:7
11,14:3
11,16:4
11,18:4
11,19:6
11,22:2
11,23:5
11,24:2
11,27:2
11,28:4
11,30:2
11,32:4
11,33:8
11,34:9
11,35:7
12,1:3
12,2:7
12,3:5
12,4:1
12,5:6
12,7:4
12,8:5
12,9:1
12,11:2
12,13:5
12,14:1
12,15:2
12,16:2
12,17:4
12,18:2
12,19:4
12,22:4
12,23:3
12,24:4
12,27:4
12,28:2
12,30:4
12,32:2
12,33:6
12,34:7
12,35:5
13,2:2
13,4:6
13,5:1
13,6:5
13,7:1
13,8:10
13,10:5
13,12:5
13,14:4
13,15:7
13,16:3
13,17:1
13,18:3
13,19:1
13,22:9
13,23:2
13,24:9
13,27:9
13,28:3
13,30:9
13,32:3
13,33:1
13,34:2
14,2:6
14,3:4
14,4:2
14,5:5
14,6:1
14,7:3
14,8:6
14,10:1
14,12:1
14,13:4
14,15:3
14,16:1
14,17:3
14,18:1
14,19:3
14,22:5
14,23:2
14,24:5
14,27:5
14,28:1
14,30:5
14,32:1
14,33:5
14,34:6
14,35:4
15,2:9
15,3:7
15,4:1
15,5:8
15,6:2
15,7:6
15,8:3
15,10:2
15,12:2
15,13:7
15,14:3
15,16:4
15,17:6
15,18:4
15,19:6
15,22:2
15,23:5
15,24:2
15,27:2
15,28:4
15,30:2
15,32:4
15,33:8
15,34:9
15,35:7
16,1:1
16,2:5
16,3:3
16,4:3
16,5:4
16,6:2
16,7:2
16,8:7
16,9:3
16,10:2
16,11:4
16,12:2
16,13:3
16,14:1
16,15:4
16,17:2
16,20:4
16,21:7
16,22:6
16,24:6
16,25:2
16,26:6
16,27:6
16,29:5
16,30:6
16,33:4
16,34:5
16,35:3
16,44:4
17,2:3
17,3:1
17,4:5
17,5:2
17,6:4
17,8:9
17,10:4
17,16:2
17,18:2
17,20:2
17,22:8
17,23:1
17,24:8
17,27:8
17,28:2
17,30:8
17,32:2
17,33:2
17,34:3
17,35:1
18,1:1
18,2:5
18,3:3
18,4:3
18,5:4
18,6:2
18,7:2
18,8:7
18,9:3
18,10:2
18,11:4
18,12:2
18,13:3
18,14:1
18,15:4
18,17:2
18,19:2
18,20:4
18,21:7
18,22:6
18,24:6
18,25:2
18,26:6
18,27:6
18,29:5
18,30:6
18,33:4
18,34:5
18,35:3
18,44:4
19,1:1
19,2:3
19,3:1
19,4:5
19,5:2
19,6:4
19,8:9
19,9:5
19,10:4
19,11:6
19,12:4
19,13:1
19,14:3
19,15:6
19,20:2
19,21:9
19,22:8
19,23:1
19,24:8
19,25:4
19,26:8
19,27:8
19,28:2
19,29:3
19,30:8
19,32:2
19,33:2
19,34:3
19,35:1
19,44:2
20,2:1
20,3:1
20,4:7
20,6:6
20,7:2
20,8:11
20,10:6
20,16:4
20,18:4
20,19:2
20,21:11
20,22:10
20,23:3
20,24:10
20,25:6
20,27:10
20,28:4
20,30:10
20,32:4
20,34:1
20,35:1
21,2:12
21,4:4
21,5:11
21,6:5
21,7:9
21,10:5
21,16:7
21,18:7
21,19:9
21,22:1
21,23:8
21,24:1
21,25:5
21,26:1
21,27:1
21,28:7
21,30:1
21,32:7
21,33:11
21,34:12
21,35:10
21,44:11
22,1:7
22,2:11
22,4:3
22,5:10
22,6:4
22,7:8
22,8:1
22,9:3
22,10:4
22,11:2
22,12:4
22,13:9
22,14:5
22,15:2
22,16:6
22,17:8
22,18:6
22,19:8
22,20:10
22,21:1
22,23:7
22,25:4
22,28:6
22,29:11
22,31:5
22,32:6
22,33:10
22,35:9
22,44:10
23,2:4
23,3:2
23,4:4
23,5:3
23,7:1
23,8:8
23,9:4
23,10:3
23,11:5
23,12:3
23,13:2
23,14:2
23,15:5
23,17:1
23,20:3
23,21:8
23,22:7
23,24:7
23,25:3
23,26:7
23,27:7
23,28:1
23,29:4
23,30:7
23,31:2
23,32:1
23,33:3
23,34:4
23,35:2
23,44:3
24,1:7
24,2:11
24,3:9
24,4:3
24,5:10
24,7:8
24,8:1
24,9:3
24,10:4
24,11:2
24,12:4
24,13:9
24,14:5
24,15:2
24,16:6
24,17:8
24,18:6
24,19:8
24,20:10
24,21:1
24,23:7
24,25:4
24,28:6
24,29:11
24,31:5
24,32:6
24,33:10
24,34:11
24,35:9
24,44:10
25,3:5
25,4:1
25,5:6
25,7:4
25,8:5
25,16:2
25,18:2
25,19:4
25,21:5
25,22:4
25,23:3
25,24:4
25,26:4
25,27:4
25,28:2
25,29:7
25,30:4
25,31:1
25,32:2
25,33:6
25,34:7
25,35:5
25,36:3
25,37:6
25,38:5
25,39:2
25,40:2
25,41:6
25,42:5
25,43:5
25,44:6
25,45:1
25,47:3
25,48:4
25,49:6
25,50:6
25,51:3
26,2:11
26,4:3
26,5:10
26,6:4
26,7:8
26,8:1
26,10:4
26,16:6
26,18:6
26,19:8
26,23:7
26,25:4
26,28:6
26,29:11
26,32:6
26,33:10
26,34:11
26,35:9
26,44:10
27,1:7
27,2:11
27,4:3
27,5:10
27,6:4
27,7:8
27,8:1
27,9:3
27,10:4
27,11:2
27,12:4
27,13:9
27,14:5
27,15:2
27,16:6
27,17:8
27,18:6
27,19:8
27,20:10
27,21:1
27,23:7
27,25:4
27,28:6
27,29:11
27,31:5
27,32:6
27,33:10
27,35:9
27,44:10
28,1:1
28,2:5
28,3:3
28,4:3
28,5:4
28,6:2
28,7:2
28,8:7
28,9:3
28,10:2
28,11:4
28,12:2
28,13:3
28,14:1
28,15:4
28,17:2
28,19:2
28,20:4
28,21:7
28,22:6
28,23:1
28,24:6
28,25:2
28,26:6
28,27:6
28,29:5
28,30:6
28,31:1
28,33:4
28,34:5
28,36:1
28,37:4
28,38:7
28,39:4
28,40:4
28,41:4
28,42:3
28,44:4
29,4:8
29,5:1
29,6:7
29,7:3
29,8:12
29,10:7
29,16:5
29,18:5
29,19:3
29,22:11
29,23:4
29,24:11
29,25:7
29,27:11
29,28:5
29,30:11
29,31:6
29,32:5
29,33:1
29,35:2
29,44:1
30,1:7
30,2:11
30,4:3
30,5:10
30,6:4
30,7:8
30,8:1
30,9:3
30,10:4
30,11:2
30,12:4
30,13:9
30,14:5
30,15:2
30,16:6
30,17:8
30,18:6
30,19:8
30,20:10
30,21:1
30,23:7
30,25:4
30,28:6
30,29:11
30,31:5
30,32:6
30,33:10
30,34:11
30,35:9
30,44:10
31,2:6
31,4:2
31,5:5
31,7:3
31,8:6
31,10:1
31,22:5
31,25:1
31,27:5
31,28:1
31,30:5
31,32:1
31,33:5
31,34:6
31,35:4
31,36:2
31,44:5
32,1:1
32,2:5
32,3:3
32,4:3
32,5:4
32,6:2
32,7:2
32,8:7
32,9:3
32,10:2
32,11:4
32,12:2
32,13:3
32,14:1
32,15:4
32,17:2
32,19:2
32,20:4
32,21:7
32,22:6
32,23:1
32,24:6
32,25:2
32,26:6
32,27:6
32,29:5
32,30:6
32,31:1
32,33:4
32,34:5
32,35:3
32,36:1
32,37:4
32,38:7
32,39:4
32,40:4
32,41:4
32,42:3
32,43:3
32,44:4
32,45:1
33,1:3
33,2:1
33,3:1
33,4:7
33,6:6
33,7:2
33,8:11
33,9:7
33,10:6
33,11:8
33,12:6
33,13:1
33,14:5
33,15:8
33,16:4
33,17:2
33,18:4
33,19:2
33,21:11
33,22:10
33,23:3
33,24:10
33,25:6
33,26:10
33,27:10
33,29:1
33,30:10
33,31:5
33,32:4
33,34:1
33,35:1
33,36:3
33,38:11
33,39:8
33,40:8
33,42:1
34,1:4
34,4:8
34,5:1
34,6:7
34,7:3
34,8:12
34,9:8
34,10:7
34,11:9
34,12:7
34,13:2
34,14:6
34,15:9
34,16:5
34,17:3
34,18:5
34,19:3
34,20:1
34,21:12
34,23:4
34,24:11
34,25:7
34,26:11
34,28:5
34,31:6
34,32:5
34,33:1
34,35:2
34,36:4
34,44:1
35,1:2
35,2:2
35,4:6
35,5:1
35,6:5
35,7:1
35,8:10
35,9:6
35,10:5
35,11:7
35,12:5
35,14:4
35,15:7
35,16:3
35,17:1
35,18:3
35,19:1
35,20:1
35,21:10
35,22:9
35,23:2
35,24:9
35,25:5
35,26:9
35,27:9
35,29:2
35,30:9
35,31:4
35,32:3
35,34:2
35,36:2
35,37:1
35,38:10
35,39:7
35,40:7
35,41:1
35,44:1
36,2:4
36,4:4
36,7:1
36,8:8
36,10:3
36,25:3
36,28:1
36,32:1
36,33:3
36,35:2
36,37:3
36,38:8
36,44:3
37,2:1
37,4:7
37,7:2
37,8:11
37,10:6
37,25:6
37,28:4
37,32:4
37,35:1
37,38:11
37,39:8
37,40:8
38,4:4
38,7:9
38,10:5
38,28:7
38,32:7
38,33:11
38,35:10
38,37:11
38,39:3
38,40:3
38,41:11
38,42:10
38,43:10
38,44:11
38,45:6
38,46:5
38,47:2
38,48:1
38,49:11
38,50:11
38,51:2
39,2:9
39,4:1
39,7:6
39,8:3
39,10:2
39,25:2
39,28:4
39,32:4
39,33:8
39,35:7
39,38:3
39,41:8
39,42:7
39,43:7
39,44:8
40,2:9
40,4:1
40,7:6
40,8:3
40,10:2
40,25:2
40,28:4
40,32:4
40,33:8
40,35:7
40,38:3
40,41:8
40,42:7
40,43:7
40,44:8
41,2:1
41,4:7
41,7:2
41,8:11
41,10:6
41,25:6
41,28:4
41,32:4
41,35:1
41,38:11
41,39:8
41,40:8
41,42:1
42,2:2
42,4:6
42,7:1
42,8:10
42,10:5
42,25:5
42,28:3
42,32:3
42,33:1
42,38:10
42,39:7
42,40:7
42,44:1
43,2:2
43,4:6
43,8:10
43,10:5
43,25:5
43,32:3
43,38:10
43,44:1
43,45:4
44,2:1
44,4:7
44,6:6
44,7:2
44,10:6
44,16:4
44,18:4
44,19:2
44,22:10
44,23:3
44,24:10
44,25:6
44,26:10
44,27:10
44,28:4
44,29:1
44,30:10
44,31:5
44,32:4
44,34:1
44,35:1
44,36:3
44,38:11
44,39:8
44,40:8
44,42:1
44,43:1
44,45:5
45,2:6
45,4:2
45,10:1
45,25:1
45,38:6
45,46:1
45,48:5
45,49:5
46,2:7
46,4:1
46,38:5
46,47:3
46,48:4
46,49:6
46,50:6
47,2:10
47,4:2
47,10:3
47,25:3
47,38:2
47,48:1
47,49:9
47,50:9
48,2:11
48,4:3
48,10:4
48,25:4
48,38:1
48,46:4
48,47:1
48,49:10
48,50:10
48,51:1
48,52:1
48,53:7
48,56:6
49,2:1
49,4:7
49,10:6
49,25:6
49,38:11
49,46:6
49,47:9
49,48:10
49,51:9
49,52:11
49,53:3
49,54:10
49,55:10
49,56:4
50,2:1
50,4:7
50,10:6
50,25:6
50,38:11
50,47:9
50,48:10
50,51:9
50,52:11
50,53:3
50,54:10
50,55:10
50,56:4
51,2:10
51,4:2
51,10:3
51,25:3
51,38:2
51,48:1
51,49:9
51,50:9
51,52:2
52,4:4
52,10:5
52,48:1
52,49:11
52,50:11
52,53:8
53,4:4
53,10:3
53,48:7
53,49:3
53,50:3
53,54:7
54,4:3
54,10:4
54,49:10
54,50:10
54,56:6
55,4:3
55,10:4
55,49:10
55,50:10
55,56:6
55,57:10
56,4:3
56,10:2
56,48:6
56,49:4
56,50:4
56,55:6
56,57:4
57,4:7
57,10:6
58,4:7
58,10:6

<setup times backward>
1,4:4
1,6:3
1,8:8
1,10:3
1,12:3
1,16:1
1,18:1
1,22:7
1,24:7
1,27:7
1,28:1
1,30:7
1,32:1
2,1:4
2,3:2
2,4:8
2,5:1
2,6:7
2,7:3
2,8:12
2,9:8
2,10:7
2,11:9
2,12:7
2,13:2
2,14:6
2,15:9
2,16:5
2,17:3
2,18:5
2,19:3
2,20:1
2,21:12
2,22:11
2,23:4
2,24:11
2,26:11
2,27:11
2,28:5
2,30:11
2,31:6
2,32:5
2,33:1
2,35:2
2,36:4
2,37:1
2,39:9
2,40:9
2,41:1
2,42:2
2,43:2
2,44:1
2,45:6
2,46:7
2,47:10
2,48:11
2,49:1
2,50:1
2,51:10
3,1:2
3,4:6
3,6:5
3,7:1
3,8:10
3,9:6
3,10:5
3,11:7
3,12:5
3,14:4
3,15:7
3,16:3
3,17:1
3,18:3
3,19:1
3,23:2
3,24:9
3,25:5
3,28:3
3,32:3
4,8:4
4,11:1
4,15:1
4,21:4
4,22:3
4,24:3
4,26:3
4,27:3
4,30:3
4,38:4
4,39:1
4,40:1
4,47:2
4,48:3
4,51:2
4,52:4
4,54:3
4,55:3
5,1:3
5,3:1
5,4:7
5,6:6
5,7:2
5,8:11
5,9:7
5,10:6
5,11:8
5,12:6
5,13:1
5,14:5
5,15:8
5,16:4
5,17:2
5,18:4
5,19:2
5,21:11
5,22:10
5,23:3
5,24:10
5,25:6
5,26:10
5,27:10
5,28:4
5,30:10
5,31:5
5,32:4
5,35:1
6,4:1
6,8:5
6,9:1
6,11:2
6,15:2
6,21:5
6,22:4
6,26:4
6,27:4
6,30:4
7,1:1
7,4:5
7,6:4
7,8:9
7,9:5
7,10:4
7,11:6
7,12:4
7,14:3
7,15:6
7,16:2
7,18:2
7,21:9
7,22:8
7,23:1
7,24:8
7,25:4
7,26:8
7,27:8
7,28:2
7,30:8
7,31:3
7,32:2
7,36:1
7,38:9
7,39:6
7,40:6
9,8:4
9,22:3
9,24:3
9,27:3
9,30:3
10,4:1
10,8:5
10,9:1
10,11:2
10,15:2
10,21:5
10,22:4
10,24:4
10,26:4
10,27:4
10,30:4
10,38:5
10,39:2
10,40:2
10,47:3
10,48:4
10,51:3
10,52:5
10,54:4
10,55:4
11,8:3
11,22:2
11,24:2
11,27:2
11,30:2
12,4:1
12,8:5
12,9:1
12,11:2
12,15:2
12,22:4
12,24:4
12,27:4
12,30:4
13,1:2
13,4:6
13,6:5
13,7:1
13,8:10
13,9:6
13,10:5
13,11:7
13,12:5
13,14:4
13,15:7
13,16:3
13,18:3
13,19:1
13,22:9
13,23:2
13,24:9
13,27:9
13,28:3
13,30:9
13,32:3
14,4:2
14,6:1
14,8:6
14,9:2
14,10:1
14,11:3
14,12:1
14,15:3
14,22:5
14,24:5
14,27:5
14,30:5
15,8:3
15,22:2
15,24:2
15,27:2
15,30:2
16,4:3
16,6:2
16,8:7
16,9:3
16,10:2
16,11:4
16,12:2
16,14:1
16,15:4
16,21:7
16,22:6
16,24:6
16,25:2
16,26:6
16,27:6
16,30:6
17,1:1
17,4:5
17,6:4
17,8:9
17,9:5
17,10:4
17,11:6
17,12:4
17,14:3
17,15:6
17,16:2
17,18:2
17,22:8
17,23:1
17,24:8
17,27:8
17,28:2
17,30:8
17,32:2
18,4:3
18,6:2
18,8:7
18,9:3
18,10:2
18,11:4
18,12:2
18,14:1
18,15:4
18,21:7
18,22:6
18,24:6
18,25:2
18,26:6
18,27:6
18,30:6
19,1:1
19,4:5
19,6:4
19,8:9
19,9:5
19,10:4
19,11:6
19,12:4
19,14:3
19,15:6
19,16:2
19,18:2
19,21:9
19,22:8
19,24:8
19,25:4
19,26:8
19,27:8
19,28:2
19,30:8
19,32:2
20,1:3
20,3:1
20,4:7
20,6:6
20,7:2
20,8:11
20,9:7
20,10:6
20,11:8
20,12:6
20,13:1
20,14:5
20,15:8
20,16:4
20,17:2
20,18:4
20,19:2
20,22:10
20,23:3
20,24:10
20,27:10
20,28:4
20,30:10
20,32:4
20,35:1
22,8:1
22,21:1
23,4:4
23,6:3
23,8:8
23,9:4
23,10:3
23,11:5
23,12:3
23,14:2
23,15:5
23,16:1
23,18:1
23,21:8
23,22:7
23,24:7
23,25:3
23,26:7
23,27:7
23,28:1
23,30:7
23,32:1
24,8:1
24,21:1
25,4:1
25,8:5
25,9:1
25,11:2
25,15:2
25,21:5
25,22:4
25,24:4
25,26:4
25,27:4
25,30:4
25,39:2
25,40:2
25,47:3
25,48:4
25,51:3
26,8:1
26,21:1
27,8:1
27,21:1
28,4:3
28,6:2
28,8:7
28,9:3
28,10:2
28,11:4
28,12:2
28,14:1
28,15:4
28,21:7
28,22:6
28,24:6
28,25:2
28,26:6
28,27:6
28,30:6
28,31:1
28,38:7
28,39:4
28,40:4
29,1:4
29,3:2
29,4:8
29,5:1
29,6:7
29,7:3
29,8:12
29,9:8
29,10:7
29,11:9
29,12:7
29,13:2
29,14:6
29,15:9
29,16:5
29,17:3
29,18:5
29,19:3
29,20:1
29,21:12
29,22:11
29,23:4
29,24:11
29,25:7
29,26:11
29,27:11
29,28:5
29,30:11
29,32:5
29,33:1
29,35:2
29,44:1
30,8:1
30,21:1
31,4:2
31,6:1
31,8:6
31,9:2
31,10:1
31,11:3
31,12:1
31,15:3
31,21:6
31,22:5
31,24:5
31,25:1
31,26:5
31,27:5
31,30:5
32,4:3
32,6:2
32,8:7
32,9:3
32,10:2
32,11:4
32,12:2
32,14:1
32,15:4
32,21:7
32,22:6
32,24:6
32,25:2
32,26:6
32,27:6
32,30:6
32,31:1
32,38:7
32,39:4
32,40:4
33,1:3
33,3:1
33,4:7
33,6:6
33,7:2
33,8:11
33,9:7
33,10:6
33,11:8
33,12:6
33,13:1
33,14:5
33,15:8
33,16:4
33,17:2
33,18:4
33,19:2
33,21:11
33,22:10
33,23:3
33,24:10
33,25:6
33,26:10
33,27:10
33,28:4
33,30:10
33,31:5
33,32:4
33,36:3
33,38:11
33,39:8
33,40:8
33,42:1
34,1:4
34,3:2
34,4:8
34,5:1
34,6:7
34,7:3
34,8:12
34,9:8
34,10:7
34,11:9
34,12:7
34,13:2
34,14:6
34,15:9
34,16:5
34,17:3
34,18:5
34,19:3
34,20:1
34,21:12
34,22:11
34,23:4
34,24:11
34,25:7
34,26:11
34,27:11
34,28:5
34,30:11
34,31:6
34,32:5
34,33:1
34,35:2
34,44:1
35,1:2
35,4:6
35,6:5
35,7:1
35,8:10
35,9:6
35,10:5
35,11:7
35,12:5
35,14:4
35,15:7
35,16:3
35,17:1
35,18:3
35,19:1
35,21:10
35,22:9
35,23:2
35,24:9
35,25:5
35,26:9
35,27:9
35,28:3
35,30:9
35,31:4
35,32:3
35,36:2
35,38:10
35,39:7
35,40:7
36,4:4
36,6:3
36,8:8
36,9:4
36,10:3
36,11:5
36,12:3
36,14:2
36,15:5
36,16:1
36,18:1
36,21:8
36,22:7
36,24:7
36,25:3
36,26:7
36,27:7
36,28:1
36,30:7
36,31:2
36,32:1
37,1:3
37,3:1
37,4:7
37,6:6
37,7:2
37,8:11
37,9:7
37,10:6
37,11:8
37,12:6
37,13:1
37,14:5
37,15:8
37,16:4
37,17:2
37,18:4
37,19:2
37,21:11
37,22:10
37,23:3
37,24:10
37,25:6
37,26:10
37,27:10
37,28:4
37,30:10
37,31:5
37,32:4
37,35:1
37,36:3
37,38:11
39,8:3
39,21:3
39,22:2
39,24:2
39,26:2
39,27:2
39,30:2
39,38:3
40,8:3
40,21:3
40,22:2
40,24:2
40,26:2
40,27:2
40,30:2
40,38:3
41,1:3
41,3:1
41,4:7
41,6:6
41,7:2
41,8:11
41,9:7
41,10:6
41,11:8
41,12:6
41,13:1
41,14:5
41,15:8
41,16:4
41,17:2
41,18:4
41,19:2
41,21:11
41,22:10
41,23:3
41,24:10
41,25:6
41,26:10
41,27:10
41,28:4
41,30:10
41,31:5
41,32:4
41,35:1
41,36:3
41,38:11
41,39:8
41,40:8
42,1:2
42,4:6
42,6:5
42,7:1
42,8:10
42,9:6
42,10:5
42,11:7
42,12:5
42,14:4
42,15:7
42,16:3
42,17:1
42,18:3
42,19:1
42,21:10
42,22:9
42,23:2
42,24:9
42,25:5
42,26:9
42,27:9
42,28:3
42,30:9
42,31:4
42,32:3
42,36:2
42,38:10
42,39:7
42,40:7
43,1:2
43,4:6
43,6:5
43,7:1
43,8:10
43,9:6
43,10:5
43,11:7
43,12:5
43,14:4
43,15:7
43,16:3
43,17:1
43,18:3
43,19:1
43,21:10
43,22:9
43,23:2
43,24:9
43,25:5
43,26:9
43,27:9
43,28:3
43,30:9
43,31:4
43,32:3
43,36:2
43,38:10
43,39:7
43,40:7
44,1:3
44,3:1
44,4:7
44,6:6
44,7:2
44,8:11
44,9:7
44,10:6
44,11:8
44,12:6
44,13:1
44,14:5
44,15:8
44,16:4
44,17:2
44,18:4
44,19:2
44,21:11
44,22:10
44,23:3
44,24:10
44,25:6
44,26:10
44,27:10
44,28:4
44,30:10
44,31:5
44,32:4
44,35:1
44,36:3
44,38:11
44,39:8
44,40:8
44,42:1
44,43:1
45,4:2
45,6:1
45,8:6
45,9:2
45,10:1
45,11:3
45,12:1
45,15:3
45,21:6
45,22:5
45,24:5
45,25:1
45,26:5
45,27:5
45,30:5
45,38:6
45,39:3
45,40:3
46,4:1
46,8:5
46,9:1
46,11:2
46,15:2
46,21:5
46,22:4
46,24:4
46,26:4
46,27:4
46,30:4
46,38:5
46,39:2
46,40:2
46,48:4
47,8:2
47,21:2
47,22:1
47,24:1
47,26:1
47,27:1
47,30:1
47,38:2
47,48:1
48,8:1
48,21:1
48,38:1
48,52:1
49,1:3
49,3:1
49,4:7
49,6:6
49,7:2
49,8:11
49,9:7
49,10:6
49,11:8
49,12:6
49,13:1
49,14:5
49,15:8
49,16:4
49,17:2
49,18:4
49,19:2
49,21:11
49,22:10
49,23:3
49,24:10
49,25:6
49,26:10
49,27:10
49,28:4
49,30:10
49,31:5
49,32:4
49,35:1
49,36:3
49,38:11
49,39:8
49,40:8
49,42:1
49,43:1
49,45:5
49,46:6
49,47:9
49,48:10
49,51:9
49,52:11
49,53:3
49,54:10
49,55:10
49,56:4
50,1:3
50,3:1
50,4:7
50,6:6
50,7:2
50,8:11
50,9:7
50,10:6
50,11:8
50,12:6
50,13:1
50,14:5
50,15:8
50,16:4
50,17:2
50,18:4
50,19:2
50,21:11
50,22:10
50,23:3
50,24:10
50,25:6
50,26:10
50,27:10
50,28:4
50,30:10
50,31:5
50,32:4
50,35:1
50,36:3
50,38:11
50,39:8
50,40:8
50,42:1
50,43:1
50,45:5
50,46:6
50,47:9
50,48:10
50,51:9
50,52:11
50,53:3
50,54:10
50,55:10
50,56:4
51,8:2
51,21:2
51,22:1
51,24:1
51,26:1
51,27:1
51,30:1
51,38:2
51,48:1
53,4:4
53,6:3
53,8:8
53,9:4
53,10:3
53,11:5
53,12:3
53,14:2
53,15:5
53,16:1
53,18:1
53,21:8
53,22:7
53,24:7
53,25:3
53,26:7
53,27:7
53,28:1
53,30:7
53,31:2
53,32:1
53,38:8
53,39:5
53,40:5
53,45:2
53,46:3
53,47:6
53,48:7
53,51:6
53,52:8
54,8:1
54,21:1
54,38:1
54,52:1
55,8:1
55,21:1
55,38:1
55,52:1
56,4:3
56,6:2
56,8:7
56,9:3
56,10:2
56,11:4
56,12:2
56,14:1
56,15:4
56,21:7
56,22:6
56,24:6
56,25:2
56,26:6
56,27:6
56,30:6
56,31:1
56,38:7
56,39:4
56,40:4
56,45:1
56,46:2
56,47:5
56,48:6
56,51:5
56,52:7
56,54:6
56,55:6
57,1:3
57,3:1
57,4:7
57,6:6
57,7:2
57,8:11
57,9:7
57,10:6
57,11:8
57,12:6
57,13:1
57,14:5
57,15:8
57,16:4
57,17:2
57,18:4
57,19:2
57,21:11
57,22:10
57,23:3
57,24:10
57,25:6
57,26:10
57,27:10
57,28:4
57,30:10
57,31:5
57,32:4
57,35:1
57,36:3
57,38:11
57,39:8
57,40:8
57,42:1
57,43:1
57,45:5
57,46:6
57,47:9
57,48:10
57,51:9
57,52:11
57,53:3
57,54:10
57,55:10
57,56:4
58,1:3
58,3:1
58,4:7
58,6:6
58,7:2
58,8:11
58,9:7
58,10:6
58,11:8
58,12:6
58,13:1
58,14:5
58,15:8
58,16:4
58,17:2
58,18:4
58,19:2
58,21:11
58,22:10
58,23:3
58,24:10
58,25:6
58,26:10
58,27:10
58,28:4
58,30:10
58,31:5
58,32:4
58,35:1
58,36:3
58,38:11
58,39:8
58,40:8
58,42:1
58,43:1
58,45:5
58,46:6
58,47:9
58,48:10
58,51:9
58,52:11
58,53:3
58,54:10
58,55:10
58,56:4

<end>

<optimal SALBP-1 value>
31


<rand seed>
467321153

